/*********************************************
 * OPL 12.6.0.0 Data
 * Author: Adrian Rodriguez Bazaga, Pau Rodriguez Esmerats
 * Creation Date: 30/11/2017 at 21:43:54
 *********************************************/

nNurses=627;
maxConsec=2;
maxPresence=7;
maxHours=5;
minHours=1;
demand= [117 127 176 173 127 176 173 133 128 70 13 20 24 26 28 20 21 12 15 6 96 198 106 147  ];
